param n:=10;
param v:=3;

param T:
	0	1	2	3	4	5	6	7	8	9	10=
0	.	26	27	24	17	9	23	10	18	23	22	
1	26	.	41	46	17	34	36	29	17	47	23	
2	27	41	.	45	42	27	5	35	24	40	48	
3	24	46	45	.	32	18	44	17	44	6	29	
4	17	17	42	32	.	24	39	16	24	33	8	
5	9	34	27	18	24	.	26	11	26	16	27	
6	23	36	5	44	39	26	.	33	20	39	45	
7	10	29	35	17	16	11	33	.	27	17	16	
8	18	17	24	44	24	26	20	27	.	41	32	
9	23	47	40	6	33	16	39	17	41	.	33	
10	22	23	48	29	8	27	45	16	32	33	.	
;

param Q:=
1	1.0
2	12.0
3	10.0
4	11.0
5	11.0
6	2.0
7	8.0
8	3.0
9	8.0
10	9.0
;